c instance by G2
c solution = 110000000110111
c Known solution cost is 617 
p cnf 15 30
w 46 5 60 99 61 31 1 5 37 39 12 30 75 88 28
-6 -11 -1 0
2 7 5 0
9 -12 -10 0
15 6 -13 0
14 12 -15 0
-4 13 -8 0
-10 -3 -5 0
6 11 7 0
-13 -11 14 0
11 5 -1 0
-14 4 -12 0
-6 3 14 0
-4 3 -2 0
8 6 -4 0
-7 15 1 0
-9 -13 -1 0
2 -5 -6 0
-1 10 7 0
-3 -8 12 0
-7 3 -11 0
3 5 11 0
11 10 13 0
7 6 -3 0
-8 4 -7 0
-14 3 -5 0
13 -11 4 0
5 4 -8 0
2 -13 3 0
-10 4 -9 0
1 7 -13 0
